Hf                                      
   1.00000000000000     
     1.5992430000000000   -2.7699699999999998    0.0000000000000000
     1.5992430000000000    2.7699699999999998    0.0000000000000000
     0.0000000000000000    0.0000000000000000    5.0751850000000003
   Hf
     2
Direct
  0.6666669999999968  0.3333330000000032  0.2500000000000000
  0.3333330000000032  0.6666669999999968  0.7500000000000000
 
  0.00000000E+00  0.00000000E+00  0.00000000E+00
  0.00000000E+00  0.00000000E+00  0.00000000E+00
